************************************************************************
file with basedata            : md366_.bas
initial value random generator: 1701742002
************************************************************************
projects                      :  1
jobs (incl. supersource/sink ):  22
horizon                       :  177
RESOURCES
  - renewable                 :  2   R
  - nonrenewable              :  2   N
  - doubly constrained        :  0   D
************************************************************************
PROJECT INFORMATION:
pronr.  #jobs rel.date duedate tardcost  MPM-Time
    1     20      0       27       14       27
************************************************************************
PRECEDENCE RELATIONS:
jobnr.    #modes  #successors   successors
   1        1          3           2   3   4
   2        3          3           8  15  17
   3        3          2           7  19
   4        3          1           5
   5        3          3           6  11  14
   6        3          2          10  19
   7        3          3          10  13  16
   8        3          1           9
   9        3          2          10  12
  10        3          1          18
  11        3          3          15  16  17
  12        3          3          14  16  21
  13        3          3          15  17  18
  14        3          1          19
  15        3          2          20  21
  16        3          1          18
  17        3          2          20  21
  18        3          1          20
  19        3          1          22
  20        3          1          22
  21        3          1          22
  22        1          0        
************************************************************************
REQUESTS/DURATIONS:
jobnr. mode duration  R 1  R 2  N 1  N 2
------------------------------------------------------------------------
  1      1     0       0    0    0    0
  2      1     4       3    6    2   10
         2     7       3    5    1    6
         3    10       2    5    1    5
  3      1     6       6    6    5    6
         2     7       5    6    4    5
         3     9       5    6    4    3
  4      1     5       7   10    7    5
         2     6       7    7    7    5
         3     9       6    5    6    4
  5      1     1       7    5    7    8
         2     5       6    3    6    5
         3    10       3    2    4    4
  6      1     3       7    6    8    7
         2     3       9    7    7    7
         3     9       5    5    7    7
  7      1     1       4    6   10    8
         2     4       4    6    9    7
         3    10       4    6    8    7
  8      1     6       4    9    9    8
         2     9       3    9    9    5
         3    10       2    7    9    3
  9      1     1       4    4    9    9
         2     1       4    5    7    9
         3     7       4    2    4    9
 10      1     2       4    6    6    7
         2     8       4    5    4    4
         3    10       4    4    3    3
 11      1     8       9    9   10    3
         2     9       8    5    9    2
         3    10       7    5    9    1
 12      1     2       9    8    7    9
         2     2      10    8    7    8
         3     9       3    8    7    7
 13      1     2       5    3    5    6
         2     8       3    2    3    3
         3     8       3    2    4    1
 14      1     2       6    8    8    8
         2     4       5    5    8    6
         3     6       5    5    7    2
 15      1     1       8    7    9   10
         2     5       6    6    8    9
         3    10       5    5    8    9
 16      1     9       3    8    9   10
         2    10       3    5    9    5
         3    10       3    3    9    7
 17      1     2       6    9   10    3
         2     2       7    9    8    3
         3     9       1    6    7    3
 18      1     1       6    6    2    5
         2     2       3    6    2    5
         3     6       2    6    2    5
 19      1     5       5    9    8    5
         2     8       5    6    5    4
         3    10       5    2    4    3
 20      1     3      10    6    6    9
         2     4       7    6    3    6
         3     9       6    4    3    5
 21      1     3       3    5    6    5
         2     4       2    5    6    4
         3     6       2    4    2    4
 22      1     0       0    0    0    0
************************************************************************
RESOURCEAVAILABILITIES:
  R 1  R 2  N 1  N 2
   17   20  125  116
************************************************************************
MAXIMAL LAGS:
from  to  type  delay
    1   22   ES      0
    1    2   ES      0
    2   22   ES      0
    1    3   ES      0
    3   22   ES      0
    1    4   ES      0
    4   22   ES      0
    1    5   ES      0
    5   22   ES      0
    1    6   ES      0
    6   22   ES      0
    1    7   ES      0
    7   22   ES      0
    1    8   ES      0
    8   22   ES      0
    1    9   ES      0
    9   22   ES      0
    1   10   ES      0
   10   22   ES      0
    1   11   ES      0
   11   22   ES      0
    1   12   ES      0
   12   22   ES      0
    1   13   ES      0
   13   22   ES      0
    1   14   ES      0
   14   22   ES      0
    1   15   ES      0
   15   22   ES      0
    1   16   ES      0
   16   22   ES      0
    1   17   ES      0
   17   22   ES      0
    1   18   ES      0
   18   22   ES      0
    1   19   ES      0
   19   22   ES      0
    1   20   ES      0
   20   22   ES      0
    1   21   ES      0
   21   22   ES      0
    1   22   ES      0
    2    8   SS    -12
    2    8   SE      5
    2    8   ES     -5
    2    8   EE     -3
    2   15   SS      4
    2   15   SE     10
    2   15   ES    -10
    2   15   EE     -7
    2   17   SS     -3
    2   17   SE     -7
    2   17   ES     11
    2   17   EE     12
    3    7   SS      0
    3    7   SE      1
    3    7   ES     -3
    3    7   EE      3
    3   19   SS     -4
    3   19   SE     -8
    3   19   ES     11
    3   19   EE      1
    4    5   SS     -3
    4    5   SE     -4
    4    5   ES    -12
    4    5   EE     -4
    5    6   SS      2
    5    6   SE      8
    5    6   ES      5
    5    6   EE     -6
    5   11   SS     12
    5   11   SE      9
    5   11   ES     12
    5   11   EE     -7
    5   14   SS     12
    5   14   SE      3
    5   14   ES      7
    5   14   EE      1
    6   10   SS      1
    6   10   SE     -5
    6   10   ES      2
    6   10   EE      7
    6   19   SS      8
    6   19   SE     -2
    6   19   ES      4
    6   19   EE    -10
    7   10   SS      9
    7   10   SE     10
    7   10   ES      5
    7   10   EE      3
    7   13   SS      2
    7   13   SE     -3
    7   13   ES     -4
    7   13   EE      7
    7   16   SS      6
    7   16   SE     -7
    7   16   ES     -3
    7   16   EE      0
    8    9   SS      4
    8    9   SE      2
    8    9   ES      9
    8    9   EE    -10
    9   10   SS     -3
    9   10   SE     -4
   10    9   SE      0
    9   10   ES      0
    9   10   EE      7
    9   12   SS     -6
    9   12   SE      6
    9   12   ES      7
    9   12   EE     10
   10   18   SS     -2
   10   18   SE     -5
   10   18   ES    -10
   10   18   EE     -2
   11   15   SS     -2
   11   15   SE      1
   11   15   ES      0
   11   15   EE     -3
   11   16   SS      8
   11   16   SE     -8
   11   16   ES     -6
   11   16   EE      7
   11   17   SS     -4
   11   17   SE    -12
   11   17   ES     -8
   11   17   EE      8
   12   14   SS      0
   12   14   SE      6
   12   14   ES     12
   12   14   EE    -12
   12   16   SS      5
   12   16   SE      6
   12   16   ES      0
   12   16   EE     -4
   12   21   SS     12
   12   21   SE      6
   12   21   ES      0
   12   21   EE      0
   13   15   SS      1
   13   15   SE      9
   13   15   ES      4
   13   15   EE    -10
   13   17   SS     -9
   13   17   SE      9
   13   17   ES      5
   13   17   EE     -7
   13   18   SS     -8
   13   18   SE      6
   13   18   ES     -8
   13   18   EE     -5
   14   19   SS      9
   14   19   SE     12
   14   19   ES      8
   14   19   EE      8
   15   20   SS      8
   15   20   SE     -8
   15   20   ES     -4
   15   20   EE      0
   15   21   SS      5
   15   21   SE      3
   15   21   ES     -8
   15   21   EE     -7
   16   18   SS    -11
   16   18   SE     -5
   16   18   ES      2
   16   18   EE     -6
   17   20   SS     -5
   17   20   SE      3
   17   20   ES     10
   17   20   EE      5
   17   21   SS     12
   17   21   SE     -4
   17   21   ES    -11
   17   21   EE      0
   18   20   SS      9
   18   20   SE     10
   18   20   ES    -10
   18   20   EE     -6
************************************************************************
